240 5
10 10 10 10 10 

0 0 0 0 0 0 5 2 14 26 38 50 
0 0 0 0 0 0 1 3 
10 0 0 0 1 0 2 6 4 
6 0 0 0 2 0 2 8 5 
6 0 0 0 2 0 2 10 7 
10 0 0 0 3 0 2 12 9 
2 0 0 0 1 0 2 12 11 
4 0 0 0 4 0 2 12 11 
8 0 0 0 3 0 1 10 
6 0 0 0 2 0 1 11 
5 0 0 0 4 0 1 13 
9 0 0 0 3 0 1 13 
0 0 0 0 0 0 1 62 
0 0 0 0 0 0 5 15 19 22 23 24 
8 0 0 1 0 0 1 16 
7 0 0 2 0 0 1 17 
9 0 0 1 0 0 1 18 
3 0 0 2 0 0 1 20 
5 0 0 2 0 0 1 21 
5 0 0 4 0 0 1 25 
8 0 0 4 0 0 1 25 
10 0 0 3 0 0 1 25 
3 0 0 4 0 0 1 25 
8 0 0 2 0 0 1 25 
0 0 0 0 0 0 1 62 
0 0 0 0 0 0 3 27 30 33 
1 0 0 1 0 0 2 36 28 
7 0 0 3 0 0 2 31 29 
2 0 0 3 0 0 2 35 32 
4 0 0 5 0 0 1 31 
4 0 0 2 0 0 1 35 
2 0 0 2 0 0 1 34 
9 0 0 2 0 0 1 34 
4 0 0 3 0 0 1 37 
9 0 0 3 0 0 1 37 
4 0 0 1 0 0 1 37 
0 0 0 0 0 0 1 62 
0 0 0 0 0 0 4 39 43 45 48 
4 0 1 0 0 0 2 42 40 
10 0 3 0 0 0 1 41 
7 0 2 0 0 0 2 47 44 
4 0 5 0 0 0 2 47 46 
3 0 2 0 0 0 1 44 
6 0 1 0 0 0 1 46 
9 0 1 0 0 0 1 46 
8 0 3 0 0 0 1 49 
5 0 2 0 0 0 1 49 
9 0 5 0 0 0 1 49 
0 0 0 0 0 0 1 62 
0 0 0 0 0 0 4 51 52 54 55 
5 1 0 0 0 0 2 60 53 
3 3 0 0 0 0 1 53 
9 2 0 0 0 0 2 59 56 
7 3 0 0 0 0 2 59 56 
7 3 0 0 0 0 2 59 57 
3 5 0 0 0 0 1 57 
5 1 0 0 0 0 1 58 
7 1 0 0 0 0 1 61 
3 4 0 0 0 0 1 61 
2 2 0 0 0 0 1 61 
0 0 0 0 0 0 1 62 
0 0 0 0 0 0 4 63 95 107 139 
0 0 0 0 0 0 3 64 70 93 
7 1 0 1 0 1 2 92 65 
1 2 0 1 0 4 2 90 66 
1 3 0 3 0 4 1 67 
9 2 0 3 0 2 3 89 87 68 
7 4 0 6 0 3 2 88 69 
9 2 0 1 0 3 3 86 85 71 
1 2 0 2 0 2 5 91 87 85 84 75 
4 3 0 2 0 2 1 72 
5 4 0 1 0 1 2 84 73 
1 2 0 2 0 1 1 74 
10 2 0 2 0 3 1 75 
10 3 0 1 0 2 2 83 76 
9 2 0 3 0 2 4 82 81 80 77 
3 1 0 3 0 3 1 78 
6 3 0 2 0 1 1 79 
10 3 0 1 0 1 1 94 
7 3 0 3 0 2 1 94 
7 2 0 1 0 3 1 94 
2 1 0 2 0 3 1 94 
3 2 0 2 0 2 1 94 
7 4 0 1 0 4 1 94 
10 3 0 2 0 2 1 94 
7 5 0 6 0 5 1 94 
4 1 0 3 0 3 1 94 
2 3 0 4 0 2 1 94 
3 2 0 5 0 2 1 94 
10 2 0 2 0 4 1 94 
9 1 0 2 0 2 1 94 
2 1 0 5 0 4 1 94 
10 6 0 3 0 2 1 94 
0 0 0 0 0 0 1 229 
0 0 0 0 0 0 3 96 101 105 
10 0 0 1 0 0 3 104 98 97 
5 0 0 3 0 0 2 103 100 
5 0 0 4 0 0 1 99 
7 0 0 4 0 0 1 100 
8 0 0 3 0 0 1 102 
7 0 0 1 0 0 1 102 
9 0 0 2 0 0 1 106 
1 0 0 3 0 0 1 106 
1 0 0 3 0 0 1 106 
3 0 0 1 0 0 1 106 
0 0 0 0 0 0 2 171 183 
0 0 0 0 0 0 3 108 109 118 
4 1 0 1 1 0 2 121 110 
6 2 0 2 2 0 2 121 110 
2 3 0 1 4 0 2 114 111 
4 2 0 2 2 0 2 117 112 
1 2 0 1 1 0 2 126 113 
8 2 0 1 4 0 2 125 115 
9 3 0 3 2 0 2 117 116 
6 2 0 1 1 0 1 116 
4 7 0 1 2 0 3 132 124 119 
1 2 0 5 3 0 3 132 124 119 
1 1 0 4 4 0 3 126 124 120 
1 7 0 4 2 0 1 120 
4 2 0 3 1 0 2 129 122 
7 2 0 3 4 0 2 126 123 
1 2 0 3 4 0 1 123 
4 1 0 3 3 0 2 137 127 
7 3 0 2 2 0 2 137 127 
2 4 0 3 1 0 2 137 127 
6 2 0 3 1 0 1 127 
3 2 0 2 2 0 2 131 128 
2 1 0 4 1 0 4 136 135 134 130 
9 3 0 2 4 0 1 130 
5 2 0 1 4 0 1 133 
4 3 0 2 1 0 1 134 
10 1 0 1 4 0 1 137 
3 2 0 1 3 0 1 138 
8 2 0 3 3 0 1 138 
5 4 0 2 1 0 1 138 
5 3 0 7 3 0 1 138 
2 2 0 4 5 0 1 138 
0 0 0 0 0 0 1 229 
0 0 0 0 0 0 6 140 165 166 167 168 169 
3 1 1 0 0 1 2 164 141 
2 2 3 0 0 1 3 163 162 142 
10 4 3 0 0 2 2 161 143 
7 4 5 0 0 2 1 144 
3 3 1 0 0 3 2 160 145 
8 2 2 0 0 2 1 146 
1 3 3 0 0 3 4 159 158 157 147 
5 1 4 0 0 3 1 148 
4 1 2 0 0 2 1 149 
8 2 1 0 0 2 1 150 
2 4 2 0 0 3 3 156 155 151 
9 1 2 0 0 2 1 152 
4 1 1 0 0 4 1 153 
7 3 2 0 0 3 1 154 
8 4 2 0 0 1 1 170 
2 1 1 0 0 1 1 170 
7 2 2 0 0 2 1 170 
1 5 1 0 0 6 1 170 
3 2 1 0 0 2 1 170 
8 2 3 0 0 2 1 170 
1 4 2 0 0 1 1 170 
9 4 7 0 0 3 1 170 
6 2 2 0 0 4 1 170 
2 1 3 0 0 2 1 170 
7 5 3 0 0 2 1 170 
7 1 2 0 0 4 1 170 
8 3 1 0 0 3 1 170 
2 2 4 0 0 4 1 170 
6 2 7 0 0 3 1 170 
1 3 2 0 0 2 1 170 
0 0 0 0 0 0 1 229 
0 0 0 0 0 0 2 172 173 
4 0 0 1 0 0 2 176 174 
10 0 0 1 0 0 2 181 176 
6 0 0 3 0 0 1 175 
1 0 0 3 0 0 2 180 177 
2 0 0 5 0 0 1 177 
1 0 0 3 0 0 2 179 178 
1 0 0 2 0 0 1 182 
6 0 0 2 0 0 1 182 
5 0 0 2 0 0 1 182 
10 0 0 3 0 0 1 182 
0 0 0 0 0 0 2 205 217 
0 0 0 0 0 0 2 184 203 
6 0 1 1 0 0 1 185 
10 0 4 3 0 0 2 193 186 
4 0 1 1 0 0 1 187 
6 0 3 3 0 0 2 195 188 
8 0 2 2 0 0 4 201 200 191 189 
9 0 4 1 0 0 1 190 
9 0 4 3 0 0 2 199 192 
2 0 3 7 0 0 2 199 192 
10 0 1 1 0 0 3 198 197 194 
1 0 1 3 0 0 3 201 200 196 
4 0 1 5 0 0 1 196 
5 0 3 1 0 0 1 202 
3 0 1 4 0 0 1 204 
7 0 1 2 0 0 1 204 
9 0 3 2 0 0 1 204 
7 0 2 3 0 0 1 204 
8 0 3 3 0 0 1 204 
3 0 2 2 0 0 1 204 
10 0 5 1 0 0 1 204 
10 0 5 2 0 0 1 204 
0 0 0 0 0 0 1 229 
0 0 0 0 0 0 3 206 214 215 
4 0 0 0 0 1 4 213 212 211 207 
7 0 0 0 0 1 1 208 
10 0 0 0 0 3 1 209 
10 0 0 0 0 1 1 210 
10 0 0 0 0 3 1 216 
9 0 0 0 0 3 1 216 
9 0 0 0 0 4 1 216 
10 0 0 0 0 3 1 216 
2 0 0 0 0 3 1 216 
9 0 0 0 0 3 1 216 
0 0 0 0 0 0 1 229 
0 0 0 0 0 0 3 218 220 221 
2 0 0 1 0 0 2 223 219 
5 0 0 2 0 0 2 225 222 
10 0 0 3 0 0 2 225 222 
3 0 0 3 0 0 1 222 
6 0 0 2 0 0 1 224 
9 0 0 2 0 0 1 224 
10 0 0 4 0 0 2 227 226 
4 0 0 3 0 0 1 226 
8 0 0 2 0 0 1 228 
9 0 0 3 0 0 1 228 
0 0 0 0 0 0 1 229 
0 0 0 0 0 0 3 230 233 236 
7 1 0 0 0 0 1 231 
5 3 0 0 0 0 2 234 232 
7 3 0 0 0 0 2 237 235 
9 6 0 0 0 0 2 237 234 
7 1 0 0 0 0 2 239 238 
5 1 0 0 0 0 2 239 238 
10 2 0 0 0 0 2 239 238 
5 2 0 0 0 0 1 238 
10 3 0 0 0 0 1 240 
1 3 0 0 0 0 1 240 
0 0 0 0 0 0 0 
